c Random 2 Leveled Graph
c 10 Rows, 10 columns, capacities in range [0, 100]
p max 102 290
n 1 s
n 102 t
a 1 11 300
a 1 10 300
a 1 9 300
a 1 8 300
a 1 7 300
a 1 6 300
a 1 5 300
a 1 4 300
a 1 3 300
a 1 2 300
a 2 15 20
a 2 20 94
a 2 17 100
a 3 21 73
a 3 17 92
a 3 18 54
a 4 16 29
a 4 18 52
a 4 19 12
a 5 13 29
a 5 16 65
a 5 14 81
a 6 21 12
a 6 20 64
a 6 15 96
a 7 18 86
a 7 15 77
a 7 12 2
a 8 15 16
a 8 13 68
a 8 19 29
a 9 13 55
a 9 16 97
a 9 12 35
a 10 17 15
a 10 12 67
a 10 14 32
a 11 15 57
a 11 16 71
a 11 18 2
a 12 29 36
a 12 25 12
a 12 26 31
a 13 24 48
a 13 27 17
a 13 25 51
a 14 27 98
a 14 24 18
a 14 25 8
a 15 30 36
a 15 24 17
a 15 29 25
a 16 30 45
a 16 23 18
a 16 22 1
a 17 24 90
a 17 25 56
a 17 26 37
a 18 26 21
a 18 22 93
a 18 23 95
a 19 30 86
a 19 27 93
a 19 25 5
a 20 28 54
a 20 26 64
a 20 25 90
a 21 25 39
a 21 26 95
a 21 22 21
a 22 32 82
a 22 39 93
a 22 38 63
a 23 37 59
a 23 34 27
a 23 38 41
a 24 37 72
a 24 39 42
a 24 35 11
a 25 36 60
a 25 32 51
a 25 40 34
a 26 37 43
a 26 35 50
a 26 39 18
a 27 37 70
a 27 36 11
a 27 39 91
a 28 40 72
a 28 34 88
a 28 37 34
a 29 41 93
a 29 32 23
a 29 40 44
a 30 36 78
a 30 35 37
a 30 39 2
a 31 32 2
a 31 37 33
a 31 34 18
a 32 47 76
a 32 43 32
a 32 42 48
a 33 46 89
a 33 49 17
a 33 48 93
a 34 49 32
a 34 48 52
a 34 43 7
a 35 47 83
a 35 46 43
a 35 45 28
a 36 46 37
a 36 50 91
a 36 51 58
a 37 43 30
a 37 46 16
a 37 49 65
a 38 50 76
a 38 46 68
a 38 44 50
a 39 45 7
a 39 42 89
a 39 49 77
a 40 46 100
a 40 44 56
a 40 51 42
a 41 49 7
a 41 47 22
a 41 42 8
a 42 54 8
a 42 57 57
a 42 53 8
a 43 52 31
a 43 58 46
a 43 53 94
a 44 61 34
a 44 55 33
a 44 59 56
a 45 57 41
a 45 58 7
a 45 60 48
a 46 59 92
a 46 58 3
a 46 55 7
a 47 52 84
a 47 57 85
a 47 53 90
a 48 56 67
a 48 52 86
a 48 58 50
a 49 59 23
a 49 52 43
a 49 60 55
a 50 60 56
a 50 52 91
a 50 54 98
a 51 53 6
a 51 57 82
a 51 61 89
a 52 64 67
a 52 67 5
a 52 71 30
a 53 70 96
a 53 62 63
a 53 67 50
a 54 67 48
a 54 62 15
a 54 69 6
a 55 62 81
a 55 68 86
a 55 69 29
a 56 67 37
a 56 66 64
a 56 65 87
a 57 63 9
a 57 66 77
a 57 65 27
a 58 62 83
a 58 63 43
a 58 66 4
a 59 65 58
a 59 71 15
a 59 70 57
a 60 68 84
a 60 66 23
a 60 65 94
a 61 62 26
a 61 69 96
a 61 65 81
a 62 74 81
a 62 80 48
a 62 81 17
a 63 73 84
a 63 80 31
a 63 75 69
a 64 80 37
a 64 72 7
a 64 78 75
a 65 76 18
a 65 74 75
a 65 80 24
a 66 79 53
a 66 75 79
a 66 81 30
a 67 76 72
a 67 81 38
a 67 80 72
a 68 76 41
a 68 72 43
a 68 75 19
a 69 80 7
a 69 76 42
a 69 79 12
a 70 74 11
a 70 77 21
a 70 73 66
a 71 81 95
a 71 77 87
a 71 78 48
a 72 90 42
a 72 89 45
a 72 88 70
a 73 85 97
a 73 89 18
a 73 84 30
a 74 84 76
a 74 86 19
a 74 91 40
a 75 90 1
a 75 83 94
a 75 88 29
a 76 84 37
a 76 90 87
a 76 86 43
a 77 88 100
a 77 85 39
a 77 82 62
a 78 86 36
a 78 87 2
a 78 85 55
a 79 87 74
a 79 85 12
a 79 91 80
a 80 85 17
a 80 84 26
a 80 82 72
a 81 91 100
a 81 82 47
a 81 87 13
a 82 92 47
a 82 96 56
a 82 97 96
a 83 99 49
a 83 100 49
a 83 94 62
a 84 98 41
a 84 101 70
a 84 97 1
a 85 99 43
a 85 94 59
a 85 97 32
a 86 98 65
a 86 101 22
a 86 93 40
a 87 101 45
a 87 93 80
a 87 97 52
a 88 95 71
a 88 96 32
a 88 93 93
a 89 100 19
a 89 92 32
a 89 101 20
a 90 100 12
a 90 97 30
a 90 96 35
a 91 93 99
a 91 100 53
a 91 95 25
a 92 102 300
a 93 102 300
a 94 102 300
a 95 102 300
a 96 102 300
a 97 102 300
a 98 102 300
a 99 102 300
a 100 102 300
a 101 102 300
